; PUSH 0x04 DUP1 DUP1 PUSH 0xa0 ADD => PUSH 0x04 DUP1 PUSH 0xa4
(set-option :produce-proofs true)
; 
(set-info :status unknown)
(declare-fun storage_t (Int (_ BitVec 256)) (_ BitVec 256))
(declare-fun storage_s (Int (_ BitVec 256)) (_ BitVec 256))
(declare-fun exc_halt_t (Int) Bool)
(declare-fun exc_halt_s (Int) Bool)
(declare-fun stack_t (Int (_ BitVec 6)) (_ BitVec 256))
(declare-fun stack_s (Int (_ BitVec 6)) (_ BitVec 256))
(declare-fun sc_t (Int) (_ BitVec 6))
(declare-fun sc_s (Int) (_ BitVec 6))
(declare-fun used_gas_t (Int) Int)
(declare-fun used_gas_s (Int) Int)
(assert
 (let (($x5948 (forall ((w (_ BitVec 256)) )(let ((?x5144 (storage_t 3 w)))
 (let ((?x11667 (storage_s 5 w)))
 (= ?x11667 ?x5144))))
 ))
 (let (($x6783 (exc_halt_t 3)))
 (let (($x11317 (exc_halt_s 5)))
 (let (($x11613 (= $x11317 $x6783)))
 (let (($x8967 (forall ((n (_ BitVec 6)) )(let ((?x9952 (stack_t 3 n)))
 (let ((?x2930 (stack_s 5 n)))
 (let (($x11109 (= ?x2930 ?x9952)))
 (or (bvsle (sc_t 3) n) $x11109)))))
 ))
 (let ((?x6438 (sc_t 3)))
 (let ((?x4319 (sc_s 5)))
 (let (($x7281 (= ?x4319 ?x6438)))
 (let ((?x5074 (used_gas_t 0)))
 (let ((?x737 (used_gas_s 0)))
 (let (($x8550 (= ?x737 ?x5074)))
 (let (($x11708 (forall ((w (_ BitVec 256)) )(let ((?x1524 (storage_t 0 w)))
 (let ((?x9122 (storage_s 0 w)))
 (= ?x9122 ?x1524))))
 ))
 (let (($x56 (exc_halt_t 0)))
 (let (($x57 (exc_halt_s 0)))
 (let (($x58 (= $x57 $x56)))
 (let (($x9770 (forall ((n (_ BitVec 6)) )(let ((?x10077 (stack_t 0 n)))
 (let ((?x1165 (stack_s 0 n)))
 (let (($x9804 (= ?x1165 ?x10077)))
 (let ((?x63 (sc_t 0)))
 (let (($x2617 (bvsle ?x63 n)))
 (or $x2617 $x9804)))))))
 ))
 (let ((?x63 (sc_t 0)))
 (let ((?x72 (sc_s 0)))
 (let (($x73 (= ?x72 ?x63)))
 (let (($x2163 (exc_halt_t 2)))
 (let (($x5871 (or $x2163 (not (= ((_ extract 6 6) (bvadd (_ bv1 7) (concat (_ bv0 1) (sc_t 2)))) (_ bv0 1))))))
 (let (($x7038 (forall ((w (_ BitVec 256)) )(let ((?x9755 (storage_t 2 w)))
 (let ((?x5144 (storage_t 3 w)))
 (= ?x5144 ?x9755))))
 ))
 (let (($x8994 (forall ((n (_ BitVec 6)) )(or (bvsle (sc_t 2) n) (= (stack_t 3 n) (stack_t 2 n))))
 ))
 (let (($x9864 (not (= ((_ extract 6 6) (bvadd (_ bv1 7) (concat (_ bv0 1) (sc_t 1)))) (_ bv0 1)))))
 (let (($x8377 (exc_halt_t 1)))
 (let (($x2999 (forall ((w (_ BitVec 256)) )(let ((?x11142 (storage_t 1 w)))
 (let ((?x9755 (storage_t 2 w)))
 (= ?x9755 ?x11142))))
 ))
 (let (($x10580 (forall ((n (_ BitVec 6)) )(or (bvsle (bvadd (_ bv63 6) (sc_t 1)) n) (= (stack_t 2 n) (stack_t 1 n))))
 ))
 (let ((?x2714 (sc_t 2)))
 (let (($x3007 (= ?x2714 (bvadd (_ bv1 6) (sc_t 1)))))
 (let ((?x7154 (sc_t 1)))
 (let ((?x8231 (bvadd (_ bv63 6) ?x7154)))
 (let ((?x6806 (stack_t 1 ?x8231)))
 (let (($x10110 (= $x8377 (or $x56 (not (= ((_ extract 6 6) (bvadd (_ bv1 7) (concat (_ bv0 1) ?x63))) (_ bv0 1)))))))
 (let (($x8675 (forall ((w (_ BitVec 256)) )(let ((?x1524 (storage_t 0 w)))
 (let ((?x11142 (storage_t 1 w)))
 (= ?x11142 ?x1524))))
 ))
 (let (($x5375 (forall ((n (_ BitVec 6)) )(let ((?x63 (sc_t 0)))
 (let (($x2617 (bvsle ?x63 n)))
 (or $x2617 (= (stack_t 1 n) (stack_t 0 n))))))
 ))
 (let (($x1385 (= ?x7154 (bvadd (_ bv1 6) ?x63))))
 (let (($x7552 (= $x11317 (or (exc_halt_s 4) (not (bvsle (_ bv0 6) (bvadd (_ bv62 6) (sc_s 4))))))))
 (let (($x5766 (forall ((w (_ BitVec 256)) )(let ((?x8925 (storage_s 4 w)))
 (let ((?x11667 (storage_s 5 w)))
 (= ?x11667 ?x8925))))
 ))
 (let (($x365 (forall ((n (_ BitVec 6)) )(or (bvsle (bvadd (_ bv62 6) (sc_s 4)) n) (= (stack_s 5 n) (stack_s 4 n))))
 ))
 (let ((?x7554 (bvadd (stack_s 4 (bvadd (_ bv63 6) (sc_s 4))) (stack_s 4 (bvadd (_ bv62 6) (sc_s 4))))))
 (let (($x292 (exc_halt_s 3)))
 (let (($x4077 (or $x292 (not (= ((_ extract 6 6) (bvadd (_ bv1 7) (concat (_ bv0 1) (sc_s 3)))) (_ bv0 1))))))
 (let (($x7172 (exc_halt_s 4)))
 (let (($x11265 (forall ((w (_ BitVec 256)) )(let ((?x851 (storage_s 3 w)))
 (let ((?x8925 (storage_s 4 w)))
 (= ?x8925 ?x851))))
 ))
 (let (($x5066 (forall ((n (_ BitVec 6)) )(or (= (stack_s 4 n) (stack_s 3 n)) (bvsle (sc_s 3) n)))
 ))
 (let (($x4387 (not (= ((_ extract 6 6) (bvadd (_ bv1 7) (concat (_ bv0 1) (sc_s 2)))) (_ bv0 1)))))
 (let (($x247 (exc_halt_s 2)))
 (let (($x7568 (forall ((w (_ BitVec 256)) )(let ((?x11220 (storage_s 2 w)))
 (let ((?x851 (storage_s 3 w)))
 (= ?x851 ?x11220))))
 ))
 (let (($x3564 (forall ((n (_ BitVec 6)) )(or (= (stack_s 3 n) (stack_s 2 n)) (bvsle (bvadd (_ bv63 6) (sc_s 2)) n)))
 ))
 (let ((?x275 (sc_s 3)))
 (let (($x5768 (= ?x275 (bvadd (_ bv1 6) (sc_s 2)))))
 (let ((?x218 (sc_s 2)))
 (let ((?x10607 (bvadd (_ bv63 6) ?x218)))
 (let ((?x3109 (stack_s 2 ?x10607)))
 (let (($x5753 (not (bvsle (_ bv0 6) (bvadd (_ bv63 6) (sc_s 1))))))
 (let (($x189 (exc_halt_s 1)))
 (let (($x2585 (or $x189 (not (= ((_ extract 6 6) (bvadd (_ bv1 7) (concat (_ bv0 1) (sc_s 1)))) (_ bv0 1))) $x5753)))
 (let (($x1892 (forall ((w (_ BitVec 256)) )(let ((?x6643 (storage_s 1 w)))
 (let ((?x11220 (storage_s 2 w)))
 (= ?x11220 ?x6643))))
 ))
 (let (($x729 (forall ((n (_ BitVec 6)) )(let ((?x154 (sc_s 1)))
 (let ((?x4271 (bvadd (_ bv63 6) ?x154)))
 (let (($x3365 (bvsle ?x4271 n)))
 (or $x3365 (= (stack_s 2 n) (stack_s 1 n)))))))
 ))
 (let ((?x154 (sc_s 1)))
 (let ((?x4271 (bvadd (_ bv63 6) ?x154)))
 (let ((?x6791 (stack_s 1 ?x4271)))
 (let (($x5377 (= $x189 (or $x57 (not (= ((_ extract 6 6) (bvadd (_ bv1 7) (concat (_ bv0 1) ?x72))) (_ bv0 1)))))))
 (let (($x10209 (forall ((w (_ BitVec 256)) )(let ((?x9122 (storage_s 0 w)))
 (let ((?x6643 (storage_s 1 w)))
 (= ?x6643 ?x9122))))
 ))
 (let (($x884 (forall ((n (_ BitVec 6)) )(or (bvsle (sc_s 0) n) (= (stack_s 1 n) (stack_s 0 n))))
 ))
 (let (($x9024 (= ?x154 (bvadd (_ bv1 6) ?x72))))
 (let (($x1828 (forall ((w (_ BitVec 256)) )(let ((?x9122 (storage_s 0 w)))
 (= ?x9122 (_ bv0 256))))
 ))
 (let (($x7455 (= ?x737 0)))
 (let (($x7461 (not $x57)))
 (let (($x1074 (= ?x72 (_ bv0 6))))
 (and $x1074 $x7461 $x7455 $x1828 (= (stack_s 1 ?x72) (_ bv4 256)) (= (used_gas_s 1) (+ 3 ?x737)) $x9024 $x884 $x10209 $x5377 (= ?x3109 ?x6791) (= (stack_s 2 ?x4271) ?x6791) (= (used_gas_s 2) (+ 3 (used_gas_s 1))) (= ?x218 (bvadd (_ bv1 6) ?x154)) $x729 $x1892 (= $x247 $x2585) (= (stack_s 3 (bvadd (_ bv63 6) ?x275)) ?x3109) (= (stack_s 3 ?x10607) ?x3109) (= (used_gas_s 3) (+ 3 (used_gas_s 2))) $x5768 $x3564 $x7568 (= $x292 (or $x247 (not (bvsle (_ bv0 6) ?x10607)) $x4387)) (= (stack_s 4 ?x275) (_ bv160 256)) (= (used_gas_s 4) (+ 3 (used_gas_s 3))) (= (sc_s 4) (bvadd (_ bv1 6) ?x275)) $x5066 $x11265 (= $x7172 $x4077) (= (stack_s 5 (bvadd (_ bv63 6) ?x4319)) ?x7554) (= (used_gas_s 5) (+ 3 (used_gas_s 4))) (= ?x4319 (bvadd (_ bv63 6) (sc_s 4))) $x365 $x5766 $x7552 (= (stack_t 1 ?x63) (_ bv4 256)) (= (used_gas_t 1) (+ 3 ?x5074)) $x1385 $x5375 $x8675 $x10110 (= (stack_t 2 (bvadd (_ bv63 6) ?x2714)) ?x6806) (= (stack_t 2 ?x8231) ?x6806) (= (used_gas_t 2) (+ 3 (used_gas_t 1))) $x3007 $x10580 $x2999 (= $x2163 (or (not (bvsle (_ bv0 6) ?x8231)) $x8377 $x9864)) (= (stack_t 3 ?x2714) (_ bv164 256)) (= (used_gas_t 3) (+ 3 (used_gas_t 2))) (= ?x6438 (bvadd (_ bv1 6) ?x2714)) $x8994 $x7038 (= $x6783 $x5871) $x73 $x9770 $x58 $x11708 $x8550 (not (and $x7281 $x8967 $x11613 $x5948))))))))))))))))))))))))))))))))))))))))))))))))))))))))))))))))))))))))))
(check-sat)
(get-proof)
